
Gurobi 9.1.0 (win64) logging started Fri Dec 18 12:36:35 2020

Changed value of parameter LogFile to log/S76D6.log
   Prev:   Default: 
Changed value of parameter TimeLimit to 1800.0
   Prev: inf  Min: 0.0  Max: inf  Default: inf
Gurobi Optimizer version 9.1.0 build v9.1.0rc0 (win64)
Thread count: 6 physical cores, 12 logical processors, using up to 12 threads
Optimize a model with 799760 rows, 417686 columns and 4949156 nonzeros
Model fingerprint: 0x374a6d43
Variable types: 75 continuous, 417611 integer (387059 binary)
Coefficient statistics:
  Matrix range     [1e+00, 1e+03]
  Objective range  [2e+00, 9e+01]
  Bounds range     [1e+00, 1e+00]
  RHS range        [1e+00, 8e+01]
Presolve removed 388351 rows and 1742 columns
Presolve time: 3.56s
Presolved: 411409 rows, 415944 columns, 2005042 nonzeros
Variable types: 75 continuous, 415869 integer (383441 binary)
Found heuristic solution: objective 10125.101119
Found heuristic solution: objective 7316.9075027

Deterministic concurrent LP optimizer: primal simplex, dual simplex, and barrier
Showing barrier log only...

Root barrier log...

Ordering time: 0.63s

Barrier statistics:
 Dense cols : 75
 AA' NZ     : 2.077e+06
 Factor NZ  : 6.018e+06 (roughly 400 MBytes of memory)
 Factor Ops : 1.841e+09 (less than 1 second per iteration)
 Threads    : 4

                  Objective                Residual
Iter       Primal          Dual         Primal    Dual     Compl     Time
   0   2.43565560e+08 -5.20665020e+08  2.57e+04 3.01e+00  1.53e+04    10s
   1   1.79559087e+08 -6.83868581e+08  1.91e+04 1.81e-09  1.11e+04    11s
   2   1.84944800e+07 -5.96314980e+08  1.54e+03 6.04e-09  1.25e+03    11s
   3   7.88712280e+06 -2.83932610e+08  3.80e+02 5.71e-07  3.34e+02    12s
   4   4.69720059e+06 -9.10607410e+07  3.71e+01 6.14e-07  8.12e+01    12s
   5   3.64794657e+06 -3.19434087e+07  3.08e+00 9.23e-07  2.90e+01    12s
   6   2.00050062e+06 -5.13820373e+06  5.29e-03 2.69e-07  5.79e+00    12s
   7   5.45975381e+05 -2.03763694e+05  6.33e-13 3.30e-08  6.08e-01    13s
   8   1.26885359e+04 -1.64023091e+04  3.35e-14 2.10e-09  2.36e-02    13s
   9   4.97234004e+03 -7.33598549e+03  1.21e-14 8.99e-10  9.98e-03    14s
  10   3.87446365e+03 -4.44341388e+03  9.19e-15 5.04e-10  6.75e-03    14s
  11   2.85311393e+03 -2.76096455e+03  6.53e-15 3.12e-10  4.55e-03    14s
  12   2.07936792e+03 -1.15479800e+03  4.46e-15 1.55e-10  2.62e-03    15s
  13   1.33895147e+03 -6.20381845e+01  2.30e-15 4.50e-11  1.14e-03    15s
  14   5.96262028e+02  3.48610776e+02  2.07e-15 1.09e-11  2.01e-04    15s
  15   4.94240639e+02  4.62285831e+02  6.82e-16 1.51e-12  2.59e-05    16s
  16   4.85827814e+02  4.81616467e+02  2.03e-15 2.56e-13  3.42e-06    16s
  17   4.85619581e+02  4.85323231e+02  1.41e-15 3.52e-14  2.40e-07    16s
  18   4.85526036e+02  4.85524960e+02  8.79e-16 3.15e-14  8.72e-10    17s
  19   4.85525947e+02  4.85525637e+02  2.93e-08 3.45e-14  2.52e-10    17s
  20   4.85525946e+02  4.85525637e+02  4.02e-06 3.33e-14  2.50e-10    18s
  21   4.85525944e+02  4.85525636e+02  3.90e-06 3.53e-14  2.50e-10    18s
  22   4.85525852e+02  4.85525790e+02  1.46e-06 3.93e-14  5.06e-11    18s
  23   4.85525850e+02  4.85525790e+02  1.41e-06 4.17e-14  4.89e-11    19s
  24   4.85525844e+02  4.85525791e+02  1.23e-06 3.90e-14  4.26e-11    19s
  25   4.85525836e+02  4.85525792e+02  1.03e-06 3.24e-14  3.54e-11    20s
  26   4.85525836e+02  4.85525793e+02  1.03e-06 3.38e-14  3.53e-11    20s
  27   4.85525836e+02  4.85525792e+02  1.02e-06 4.22e-14  3.52e-11    20s

Barrier solved model in 27 iterations and 20.45 seconds
Optimal objective 4.85525836e+02


Root crossover log...

   24248 DPushes remaining with DInf 0.0000000e+00                21s
       0 DPushes remaining with DInf 0.0000000e+00                21s

    4135 PPushes remaining with PInf 2.1921974e-06                22s
     438 PPushes remaining with PInf 0.0000000e+00                26s
       0 PPushes remaining with PInf 0.0000000e+00                27s

  Push phase complete: Pinf 0.0000000e+00, Dinf 8.1539385e+03     27s


Root simplex log...

Iteration    Objective       Primal Inf.    Dual Inf.      Time
   27734    4.8552580e+02   0.000000e+00   8.153938e+03     27s
   28094    4.8552580e+02   0.000000e+00   5.968095e+03     30s
   28484    4.8552555e+02   0.000000e+00   2.078631e+04     36s
   28894    4.8552343e+02   0.000000e+00   2.660406e+05     40s
   29574    4.8552197e+02   0.000000e+00   1.563570e+05     46s
   30134    4.8552007e+02   0.000000e+00   8.844691e+04     50s
   30784    4.8551891e+02   0.000000e+00   1.865962e+05     57s
   31184    4.8551827e+02   0.000000e+00   6.666421e+04     60s
   31634    4.8551788e+02   0.000000e+00   4.834305e+04     66s
   32144    4.8551720e+02   0.000000e+00   1.686083e+06     71s
   32744    4.8551610e+02   0.000000e+00   6.369592e+04     76s
Concurrent spin time: 0.02s

Solved with dual simplex

Root relaxation: objective 4.855258e+02, 57094 iterations, 71.91 seconds
Total elapsed time = 92.93s
Total elapsed time = 95.20s

    Nodes    |    Current Node    |     Objective Bounds      |     Work
 Expl Unexpl |  Obj  Depth IntInf | Incumbent    BestBd   Gap | It/Node Time

     0     0  485.52580    0 1370 7316.90750  485.52580  93.4%     -   97s
H    0     0                    4949.7004353  485.52580  90.2%     -  221s
     0     0  485.52580    0 1604 4949.70044  485.52580  90.2%     -  282s
     0     0  487.29618    0 1557 4949.70044  487.29618  90.2%     -  345s
     0     0  487.53274    0 1420 4949.70044  487.53274  90.2%     -  426s
     0     0  487.53274    0 1446 4949.70044  487.53274  90.2%     -  442s
     0     0  489.95592    0 1592 4949.70044  489.95592  90.1%     -  496s
     0     0  490.84816    0 1611 4949.70044  490.84816  90.1%     - 1006s
     0     0  490.84816    0 1611 4949.70044  490.84816  90.1%     - 1006s
     0     0  492.38617    0 1645 4949.70044  492.38617  90.1%     - 1017s
     0     0  492.38617    0 1645 4949.70044  492.38617  90.1%     - 1022s
     0     0  492.38617    0 1646 4949.70044  492.38617  90.1%     - 1031s
     0     0  492.38617    0 1646 4949.70044  492.38617  90.1%     - 1035s
     0     0  492.38617    0 1401 4949.70044  492.38617  90.1%     - 1059s
     0     0  492.38617    0 1439 4949.70044  492.38617  90.1%     - 1113s
     0     0  492.38617    0 1396 4949.70044  492.38617  90.1%     - 1147s
     0     0  492.38617    0 1429 4949.70044  492.38617  90.1%     - 1168s
     0     0  492.38617    0 1425 4949.70044  492.38617  90.1%     - 1197s
     0     0  492.38617    0 1440 4949.70044  492.38617  90.1%     - 1202s
     0     0  492.38617    0 1417 4949.70044  492.38617  90.1%     - 1222s
     0     0  492.38617    0 1417 4949.70044  492.38617  90.1%     - 1226s
     0     0  492.38617    0 1479 4949.70044  492.38617  90.1%     - 1248s
     0     0  492.38617    0 1479 4949.70044  492.38617  90.1%     - 1268s
     0     2  492.38617    0 1412 4949.70044  492.38617  90.1%     - 1445s
     1     2 infeasible    1      4949.70044  492.38617  90.1% 10496 1523s
     3     4  505.51477    2 1717 4949.70044  503.59119  89.8% 12197 1637s
     5     5  511.44247    3 1724 4949.70044  505.51477  89.8% 12564 1800s

Cutting planes:
  Gomory: 2
  MIR: 102
  Zero half: 76
  RLT: 1
  Relax-and-lift: 5

Explored 6 nodes (415939 simplex iterations) in 1800.21 seconds
Thread count was 12 (of 12 available processors)

Solution count 3: 4949.7 7316.91 10125.1 

Time limit reached
Best objective 4.949700435304e+03, best bound 5.055147695841e+02, gap 89.7870%

Gurobi 9.1.0 (win64) logging started Fri Dec 18 15:05:14 2020

Changed value of parameter LogFile to log/S76D6.log
   Prev:   Default: 

Gurobi 9.1.0 (win64) logging started Fri Dec 18 17:24:22 2020

Changed value of parameter LogFile to log/S76D6.log
   Prev:   Default: 
Changed value of parameter TimeLimit to 720.0
   Prev: inf  Min: 0.0  Max: inf  Default: inf
Gurobi Optimizer version 9.1.0 build v9.1.0rc0 (win64)
Thread count: 6 physical cores, 12 logical processors, using up to 12 threads
Optimize a model with 799760 rows, 417686 columns and 4949156 nonzeros
Model fingerprint: 0x374a6d43
Variable types: 75 continuous, 417611 integer (387059 binary)
Coefficient statistics:
  Matrix range     [1e+00, 1e+03]
  Objective range  [2e+00, 9e+01]
  Bounds range     [1e+00, 1e+00]
  RHS range        [1e+00, 8e+01]
Presolve removed 388351 rows and 1742 columns
Presolve time: 3.55s
Presolved: 411409 rows, 415944 columns, 2005042 nonzeros
Variable types: 75 continuous, 415869 integer (383441 binary)
Found heuristic solution: objective 10125.101119
Found heuristic solution: objective 7316.9075027

Deterministic concurrent LP optimizer: primal simplex, dual simplex, and barrier
Showing barrier log only...

Root barrier log...

Ordering time: 0.45s

Barrier statistics:
 Dense cols : 75
 AA' NZ     : 2.077e+06
 Factor NZ  : 6.018e+06 (roughly 400 MBytes of memory)
 Factor Ops : 1.841e+09 (less than 1 second per iteration)
 Threads    : 4

                  Objective                Residual
Iter       Primal          Dual         Primal    Dual     Compl     Time
   0   2.43565560e+08 -5.20665020e+08  2.57e+04 3.01e+00  1.53e+04    10s
   1   1.79559087e+08 -6.83868581e+08  1.91e+04 1.81e-09  1.11e+04    10s
   2   1.84944800e+07 -5.96314980e+08  1.54e+03 6.04e-09  1.25e+03    11s
   3   7.88712280e+06 -2.83932610e+08  3.80e+02 5.71e-07  3.34e+02    11s
   4   4.69720059e+06 -9.10607410e+07  3.71e+01 6.14e-07  8.12e+01    12s
   5   3.64794657e+06 -3.19434087e+07  3.08e+00 9.23e-07  2.90e+01    12s
   6   2.00050062e+06 -5.13820373e+06  5.29e-03 2.69e-07  5.79e+00    12s
   7   5.45975381e+05 -2.03763694e+05  6.33e-13 3.30e-08  6.08e-01    13s
   8   1.26885359e+04 -1.64023091e+04  3.35e-14 2.10e-09  2.36e-02    13s
   9   4.97234004e+03 -7.33598549e+03  1.21e-14 8.99e-10  9.98e-03    13s
  10   3.87446365e+03 -4.44341388e+03  9.19e-15 5.04e-10  6.75e-03    14s
  11   2.85311393e+03 -2.76096455e+03  6.53e-15 3.12e-10  4.55e-03    14s
  12   2.07936792e+03 -1.15479800e+03  4.46e-15 1.55e-10  2.62e-03    14s
  13   1.33895147e+03 -6.20381845e+01  2.30e-15 4.50e-11  1.14e-03    15s
  14   5.96262028e+02  3.48610776e+02  2.07e-15 1.09e-11  2.01e-04    15s
  15   4.94240639e+02  4.62285831e+02  6.82e-16 1.51e-12  2.59e-05    16s
  16   4.85827814e+02  4.81616467e+02  2.03e-15 2.56e-13  3.42e-06    16s
  17   4.85619581e+02  4.85323231e+02  1.41e-15 3.52e-14  2.40e-07    16s
  18   4.85526036e+02  4.85524960e+02  8.79e-16 3.15e-14  8.72e-10    17s
  19   4.85525947e+02  4.85525637e+02  2.93e-08 3.45e-14  2.52e-10    17s
  20   4.85525946e+02  4.85525637e+02  4.02e-06 3.33e-14  2.50e-10    17s
  21   4.85525944e+02  4.85525636e+02  3.90e-06 3.53e-14  2.50e-10    18s
  22   4.85525852e+02  4.85525790e+02  1.46e-06 3.93e-14  5.06e-11    18s
  23   4.85525850e+02  4.85525790e+02  1.41e-06 4.17e-14  4.89e-11    19s
  24   4.85525844e+02  4.85525791e+02  1.23e-06 3.90e-14  4.26e-11    19s
  25   4.85525836e+02  4.85525792e+02  1.03e-06 3.24e-14  3.54e-11    19s
  26   4.85525836e+02  4.85525793e+02  1.03e-06 3.38e-14  3.53e-11    20s
  27   4.85525836e+02  4.85525792e+02  1.02e-06 4.22e-14  3.52e-11    20s

Barrier solved model in 27 iterations and 20.17 seconds
Optimal objective 4.85525836e+02


Root crossover log...

   24248 DPushes remaining with DInf 0.0000000e+00                20s
       0 DPushes remaining with DInf 0.0000000e+00                21s

    4135 PPushes remaining with PInf 2.1921974e-06                21s
     438 PPushes remaining with PInf 0.0000000e+00                25s
       0 PPushes remaining with PInf 0.0000000e+00                26s

  Push phase complete: Pinf 0.0000000e+00, Dinf 8.1539385e+03     26s


Root simplex log...

Iteration    Objective       Primal Inf.    Dual Inf.      Time
   27734    4.8552580e+02   0.000000e+00   8.153938e+03     27s
   28274    4.8552568e+02   0.000000e+00   2.659610e+04     31s
   28604    4.8552550e+02   0.000000e+00   1.741439e+05     35s
   29334    4.8552227e+02   0.000000e+00   1.586055e+04     41s
   29974    4.8552123e+02   0.000000e+00   7.240899e+04     46s
   30564    4.8551912e+02   0.000000e+00   9.472566e+04     50s
   31184    4.8551827e+02   0.000000e+00   6.666421e+04     56s
   31634    4.8551788e+02   0.000000e+00   4.834305e+04     60s
   32484    4.8551653e+02   0.000000e+00   1.777587e+05     66s
Concurrent spin time: 0.02s

Solved with dual simplex

Root relaxation: objective 4.855258e+02, 57094 iterations, 61.17 seconds
Total elapsed time = 82.33s
Total elapsed time = 85.74s

    Nodes    |    Current Node    |     Objective Bounds      |     Work
 Expl Unexpl |  Obj  Depth IntInf | Incumbent    BestBd   Gap | It/Node Time

     0     0  485.52580    0 1370 7316.90750  485.52580  93.4%     -   86s
H    0     0                    4949.7004353  485.52580  90.2%     -  212s
     0     0  485.52580    0 1604 4949.70044  485.52580  90.2%     -  276s
     0     0  487.29618    0 1557 4949.70044  487.29618  90.2%     -  340s
     0     0  487.53274    0 1420 4949.70044  487.53274  90.2%     -  421s
     0     0  487.53274    0 1446 4949.70044  487.53274  90.2%     -  437s
     0     0  489.95592    0 1592 4949.70044  489.95592  90.1%     -  491s

Cutting planes:
  Gomory: 2
  MIR: 77
  Zero half: 57
  Mod-K: 1
  RLT: 1
  Relax-and-lift: 4

Explored 1 nodes (190910 simplex iterations) in 720.09 seconds
Thread count was 12 (of 12 available processors)

Solution count 3: 4949.7 7316.91 10125.1 

Time limit reached
Best objective 4.949700435304e+03, best bound 4.899559230712e+02, gap 90.1013%
